NAME: bip_20_3
TYPE: TSP
COMMENT: bip_20_3
DIMENSION: 20
EDGE_WEIGHT_TYPE: EUC_2D
NODE_COORD_SECTION
1 45 1
2 27 9
3 45 3
4 30 91
5 53 67
6 37 94
7 39 90
8 55 90
9 48 37
10 20 73
11 416 405
12 428 485
13 448 411
14 454 491
15 400 493
16 450 452
17 447 490
18 402 469
19 478 417
20 435 481
